units           real
neigh_modify    delay 0 every 1 check yes
atom_style      full
bond_style      harmonic
angle_style     harmonic
pair_style      lj/cut/coul/long 10.0
pair_modify     mix arithmetic
kspace_style    pppm 1e-4
special_bonds   amber

atom_modify	sort 0 0

read_data       lammps.data

min_style cg

dump            1 all custom 1 min.lammpstrj id element xu yu zu
dump            2 all custom 1 min.force id element fx fy fz
dump            3 all xyz 1 min.xyz
dump_modify     1 element O H
dump_modify     2 element O H

mdi engine

write_data min.data